NAME          DCAP_2_4_3_300_SS242
ROWS
 N  OBJ
 L  CON1
 L  CON2
 L  CON3
 L  CON4
 L  CON5
 L  CON6
 L  CON7
 L  CON8
 L  CON9
 L  CON10
 L  CON11
 L  CON12
 E  CON13
 E  CON14
 E  CON15
 E  CON16
 E  CON17
 E  CON18
 E  CON19
 E  CON20
 E  CON21
 E  CON22
 E  CON23
 E  CON24
COLUMNS
    x[1,1]    OBJ       6.180167      CON1      1.000000    
    x[1,1]    CON7      -1.000000     CON8      -1.000000   
    x[1,1]    CON9      -1.000000   
    x[1,2]    OBJ       6.563535      CON2      1.000000    
    x[1,2]    CON8      -1.000000     CON9      -1.000000   
    x[1,3]    OBJ       7.443064      CON3      1.000000    
    x[1,3]    CON9      -1.000000   
    x[2,1]    OBJ       6.732585      CON4      1.000000    
    x[2,1]    CON10     -1.000000     CON11     -1.000000   
    x[2,1]    CON12     -1.000000   
    x[2,2]    OBJ       5.039546      CON5      1.000000    
    x[2,2]    CON11     -1.000000     CON12     -1.000000   
    x[2,3]    OBJ       6.054841      CON6      1.000000    
    x[2,3]    CON12     -1.000000   
    MARKER    'MARKER'                'INTORG'
    u[1,1]    OBJ       48.076654     CON1      -1.000000   
    u[1,2]    OBJ       20.066487     CON2      -1.000000   
    u[1,3]    OBJ       32.230043     CON3      -1.000000   
    u[2,1]    OBJ       49.996186     CON4      -1.000000   
    u[2,2]    OBJ       49.466655     CON5      -1.000000   
    u[2,3]    OBJ       27.484319     CON6      -1.000000   
    y[1,1,1]  OBJ       9.703169      CON7      1.062734    
    y[1,1,1]  CON13     1.000000    
    y[1,1,2]  OBJ       6.114039      CON8      0.524294    
    y[1,1,2]  CON14     1.000000    
    y[1,1,3]  OBJ       7.515622      CON9      0.549429    
    y[1,1,3]  CON15     1.000000    
    y[1,2,1]  OBJ       8.363712      CON7      0.598291    
    y[1,2,1]  CON16     1.000000    
    y[1,2,2]  OBJ       6.647676      CON8      0.556128    
    y[1,2,2]  CON17     1.000000    
    y[1,2,3]  OBJ       9.897538      CON9      1.421567    
    y[1,2,3]  CON18     1.000000    
    y[1,3,1]  OBJ       5.452476      CON7      1.304303    
    y[1,3,1]  CON19     1.000000    
    y[1,3,2]  OBJ       5.132056      CON8      1.070021    
    y[1,3,2]  CON20     1.000000    
    y[1,3,3]  OBJ       6.973688      CON9      0.533509    
    y[1,3,3]  CON21     1.000000    
    y[1,4,1]  OBJ       7.934076      CON7      0.582788    
    y[1,4,1]  CON22     1.000000    
    y[1,4,2]  OBJ       7.836387      CON8      0.844854    
    y[1,4,2]  CON23     1.000000    
    y[1,4,3]  OBJ       7.993881      CON9      1.362240    
    y[1,4,3]  CON24     1.000000    
    y[2,1,1]  OBJ       7.093465      CON10     1.062734    
    y[2,1,1]  CON13     1.000000    
    y[2,1,2]  OBJ       8.777922      CON11     0.524294    
    y[2,1,2]  CON14     1.000000    
    y[2,1,3]  OBJ       7.465566      CON12     0.549429    
    y[2,1,3]  CON15     1.000000    
    y[2,2,1]  OBJ       6.294990      CON10     0.598291    
    y[2,2,1]  CON16     1.000000    
    y[2,2,2]  OBJ       8.568029      CON11     0.556128    
    y[2,2,2]  CON17     1.000000    
    y[2,2,3]  OBJ       7.624699      CON12     1.421567    
    y[2,2,3]  CON18     1.000000    
    y[2,3,1]  OBJ       6.988485      CON10     1.304303    
    y[2,3,1]  CON19     1.000000    
    y[2,3,2]  OBJ       5.367999      CON11     1.070021    
    y[2,3,2]  CON20     1.000000    
    y[2,3,3]  OBJ       9.576121      CON12     0.533509    
    y[2,3,3]  CON21     1.000000    
    y[2,4,1]  OBJ       5.708404      CON10     0.582788    
    y[2,4,1]  CON22     1.000000    
    y[2,4,2]  OBJ       7.119639      CON11     0.844854    
    y[2,4,2]  CON23     1.000000    
    y[2,4,3]  OBJ       5.800080      CON12     1.362240    
    y[2,4,3]  CON24     1.000000    
    z[1,1]    OBJ       858.385798    CON13     1.000000    
    z[1,2]    OBJ       605.120520    CON14     1.000000    
    z[1,3]    OBJ       994.659742    CON15     1.000000    
    z[2,1]    OBJ       744.797943    CON16     1.000000    
    z[2,2]    OBJ       647.070152    CON17     1.000000    
    z[2,3]    OBJ       921.843252    CON18     1.000000    
    z[3,1]    OBJ       810.750742    CON19     1.000000    
    z[3,2]    OBJ       770.926634    CON20     1.000000    
    z[3,3]    OBJ       773.934993    CON21     1.000000    
    z[4,1]    OBJ       672.000845    CON22     1.000000    
    z[4,2]    OBJ       873.542658    CON23     1.000000    
    z[4,3]    OBJ       664.361279    CON24     1.000000    
    MARKER    'MARKER'                 'INTEND'
RHS
    RHS       CON1      -0.000000     CON2      -0.000000   
    RHS       CON3      -0.000000     CON4      -0.000000   
    RHS       CON5      -0.000000     CON6      -0.000000   
    RHS       CON7      -0.000000     CON8      -0.000000   
    RHS       CON9      -0.000000     CON10     -0.000000   
    RHS       CON11     -0.000000     CON12     -0.000000   
    RHS       CON13     1.000000      CON14     1.000000    
    RHS       CON15     1.000000      CON16     1.000000    
    RHS       CON17     1.000000      CON18     1.000000    
    RHS       CON19     1.000000      CON20     1.000000    
    RHS       CON21     1.000000      CON22     1.000000    
    RHS       CON23     1.000000      CON24     1.000000    
BOUNDS
 BV BOUND     u[1,1]  
 BV BOUND     u[1,2]  
 BV BOUND     u[1,3]  
 BV BOUND     u[2,1]  
 BV BOUND     u[2,2]  
 BV BOUND     u[2,3]  
 BV BOUND     y[1,1,1]
 BV BOUND     y[1,1,2]
 BV BOUND     y[1,1,3]
 BV BOUND     y[1,2,1]
 BV BOUND     y[1,2,2]
 BV BOUND     y[1,2,3]
 BV BOUND     y[1,3,1]
 BV BOUND     y[1,3,2]
 BV BOUND     y[1,3,3]
 BV BOUND     y[1,4,1]
 BV BOUND     y[1,4,2]
 BV BOUND     y[1,4,3]
 BV BOUND     y[2,1,1]
 BV BOUND     y[2,1,2]
 BV BOUND     y[2,1,3]
 BV BOUND     y[2,2,1]
 BV BOUND     y[2,2,2]
 BV BOUND     y[2,2,3]
 BV BOUND     y[2,3,1]
 BV BOUND     y[2,3,2]
 BV BOUND     y[2,3,3]
 BV BOUND     y[2,4,1]
 BV BOUND     y[2,4,2]
 BV BOUND     y[2,4,3]
 BV BOUND     z[1,1]  
 BV BOUND     z[1,2]  
 BV BOUND     z[1,3]  
 BV BOUND     z[2,1]  
 BV BOUND     z[2,2]  
 BV BOUND     z[2,3]  
 BV BOUND     z[3,1]  
 BV BOUND     z[3,2]  
 BV BOUND     z[3,3]  
 BV BOUND     z[4,1]  
 BV BOUND     z[4,2]  
 BV BOUND     z[4,3]  
ENDATA
